g3 1 1 0	# problem unknown
 100 98 1 0 98 	# vars, constraints, objectives, ranges, eqns
 98 1 0 0 0 0	# nonlinear constrs, objs; ccons: lin, nonlin, nd, nzlb
 0 0	# network constraints: nonlinear, linear
 100 100 100 	# nonlinear vars in constraints, objectives, both
 0 0 0 1	# linear network variables; functions; arith, flags
 0 0 0 0 0 	# discrete variables: binary, integer, nonlinear (b,c,o)
 294 100 	# nonzeros in Jacobian, obj. gradient
 0 0	# max name lengths: constraints, variables
 0 0 0 0 0	# common exprs: b,c,o,c1,o1
C0
o54
3
o2
n3
o5
v1
n3
o2
o41
o0
v1
o2
n-1
v2
o41
o0
v1
v2
o16
o2
v0
o44
o0
v0
o2
n-1
v1
C1
o54
3
o2
n3
o5
v2
n3
o2
o41
o0
v2
o2
n-1
v3
o41
o0
v2
v3
o16
o2
v1
o44
o0
v1
o2
n-1
v2
C2
o54
3
o2
n3
o5
v3
n3
o2
o41
o0
v3
o2
n-1
v4
o41
o0
v3
v4
o16
o2
v2
o44
o0
v2
o2
n-1
v3
C3
o54
3
o2
n3
o5
v4
n3
o2
o41
o0
v4
o2
n-1
v5
o41
o0
v4
v5
o16
o2
v3
o44
o0
v3
o2
n-1
v4
C4
o54
3
o2
n3
o5
v5
n3
o2
o41
o0
v5
o2
n-1
v6
o41
o0
v5
v6
o16
o2
v4
o44
o0
v4
o2
n-1
v5
C5
o54
3
o2
n3
o5
v6
n3
o2
o41
o0
v6
o2
n-1
v7
o41
o0
v6
v7
o16
o2
v5
o44
o0
v5
o2
n-1
v6
C6
o54
3
o2
n3
o5
v7
n3
o2
o41
o0
v7
o2
n-1
v8
o41
o0
v7
v8
o16
o2
v6
o44
o0
v6
o2
n-1
v7
C7
o54
3
o2
n3
o5
v8
n3
o2
o41
o0
v8
o2
n-1
v9
o41
o0
v8
v9
o16
o2
v7
o44
o0
v7
o2
n-1
v8
C8
o54
3
o2
n3
o5
v9
n3
o2
o41
o0
v9
o2
n-1
v10
o41
o0
v9
v10
o16
o2
v8
o44
o0
v8
o2
n-1
v9
C9
o54
3
o2
n3
o5
v10
n3
o2
o41
o0
v10
o2
n-1
v11
o41
o0
v10
v11
o16
o2
v9
o44
o0
v9
o2
n-1
v10
C10
o54
3
o2
n3
o5
v11
n3
o2
o41
o0
v11
o2
n-1
v12
o41
o0
v11
v12
o16
o2
v10
o44
o0
v10
o2
n-1
v11
C11
o54
3
o2
n3
o5
v12
n3
o2
o41
o0
v12
o2
n-1
v13
o41
o0
v12
v13
o16
o2
v11
o44
o0
v11
o2
n-1
v12
C12
o54
3
o2
n3
o5
v13
n3
o2
o41
o0
v13
o2
n-1
v14
o41
o0
v13
v14
o16
o2
v12
o44
o0
v12
o2
n-1
v13
C13
o54
3
o2
n3
o5
v14
n3
o2
o41
o0
v14
o2
n-1
v15
o41
o0
v14
v15
o16
o2
v13
o44
o0
v13
o2
n-1
v14
C14
o54
3
o2
n3
o5
v15
n3
o2
o41
o0
v15
o2
n-1
v16
o41
o0
v15
v16
o16
o2
v14
o44
o0
v14
o2
n-1
v15
C15
o54
3
o2
n3
o5
v16
n3
o2
o41
o0
v16
o2
n-1
v17
o41
o0
v16
v17
o16
o2
v15
o44
o0
v15
o2
n-1
v16
C16
o54
3
o2
n3
o5
v17
n3
o2
o41
o0
v17
o2
n-1
v18
o41
o0
v17
v18
o16
o2
v16
o44
o0
v16
o2
n-1
v17
C17
o54
3
o2
n3
o5
v18
n3
o2
o41
o0
v18
o2
n-1
v19
o41
o0
v18
v19
o16
o2
v17
o44
o0
v17
o2
n-1
v18
C18
o54
3
o2
n3
o5
v19
n3
o2
o41
o0
v19
o2
n-1
v20
o41
o0
v19
v20
o16
o2
v18
o44
o0
v18
o2
n-1
v19
C19
o54
3
o2
n3
o5
v20
n3
o2
o41
o0
v20
o2
n-1
v21
o41
o0
v20
v21
o16
o2
v19
o44
o0
v19
o2
n-1
v20
C20
o54
3
o2
n3
o5
v21
n3
o2
o41
o0
v21
o2
n-1
v22
o41
o0
v21
v22
o16
o2
v20
o44
o0
v20
o2
n-1
v21
C21
o54
3
o2
n3
o5
v22
n3
o2
o41
o0
v22
o2
n-1
v23
o41
o0
v22
v23
o16
o2
v21
o44
o0
v21
o2
n-1
v22
C22
o54
3
o2
n3
o5
v23
n3
o2
o41
o0
v23
o2
n-1
v24
o41
o0
v23
v24
o16
o2
v22
o44
o0
v22
o2
n-1
v23
C23
o54
3
o2
n3
o5
v24
n3
o2
o41
o0
v24
o2
n-1
v25
o41
o0
v24
v25
o16
o2
v23
o44
o0
v23
o2
n-1
v24
C24
o54
3
o2
n3
o5
v25
n3
o2
o41
o0
v25
o2
n-1
v26
o41
o0
v25
v26
o16
o2
v24
o44
o0
v24
o2
n-1
v25
C25
o54
3
o2
n3
o5
v26
n3
o2
o41
o0
v26
o2
n-1
v27
o41
o0
v26
v27
o16
o2
v25
o44
o0
v25
o2
n-1
v26
C26
o54
3
o2
n3
o5
v27
n3
o2
o41
o0
v27
o2
n-1
v28
o41
o0
v27
v28
o16
o2
v26
o44
o0
v26
o2
n-1
v27
C27
o54
3
o2
n3
o5
v28
n3
o2
o41
o0
v28
o2
n-1
v29
o41
o0
v28
v29
o16
o2
v27
o44
o0
v27
o2
n-1
v28
C28
o54
3
o2
n3
o5
v29
n3
o2
o41
o0
v29
o2
n-1
v30
o41
o0
v29
v30
o16
o2
v28
o44
o0
v28
o2
n-1
v29
C29
o54
3
o2
n3
o5
v30
n3
o2
o41
o0
v30
o2
n-1
v31
o41
o0
v30
v31
o16
o2
v29
o44
o0
v29
o2
n-1
v30
C30
o54
3
o2
n3
o5
v31
n3
o2
o41
o0
v31
o2
n-1
v32
o41
o0
v31
v32
o16
o2
v30
o44
o0
v30
o2
n-1
v31
C31
o54
3
o2
n3
o5
v32
n3
o2
o41
o0
v32
o2
n-1
v33
o41
o0
v32
v33
o16
o2
v31
o44
o0
v31
o2
n-1
v32
C32
o54
3
o2
n3
o5
v33
n3
o2
o41
o0
v33
o2
n-1
v34
o41
o0
v33
v34
o16
o2
v32
o44
o0
v32
o2
n-1
v33
C33
o54
3
o2
n3
o5
v34
n3
o2
o41
o0
v34
o2
n-1
v35
o41
o0
v34
v35
o16
o2
v33
o44
o0
v33
o2
n-1
v34
C34
o54
3
o2
n3
o5
v35
n3
o2
o41
o0
v35
o2
n-1
v36
o41
o0
v35
v36
o16
o2
v34
o44
o0
v34
o2
n-1
v35
C35
o54
3
o2
n3
o5
v36
n3
o2
o41
o0
v36
o2
n-1
v37
o41
o0
v36
v37
o16
o2
v35
o44
o0
v35
o2
n-1
v36
C36
o54
3
o2
n3
o5
v37
n3
o2
o41
o0
v37
o2
n-1
v38
o41
o0
v37
v38
o16
o2
v36
o44
o0
v36
o2
n-1
v37
C37
o54
3
o2
n3
o5
v38
n3
o2
o41
o0
v38
o2
n-1
v39
o41
o0
v38
v39
o16
o2
v37
o44
o0
v37
o2
n-1
v38
C38
o54
3
o2
n3
o5
v39
n3
o2
o41
o0
v39
o2
n-1
v40
o41
o0
v39
v40
o16
o2
v38
o44
o0
v38
o2
n-1
v39
C39
o54
3
o2
n3
o5
v40
n3
o2
o41
o0
v40
o2
n-1
v41
o41
o0
v40
v41
o16
o2
v39
o44
o0
v39
o2
n-1
v40
C40
o54
3
o2
n3
o5
v41
n3
o2
o41
o0
v41
o2
n-1
v42
o41
o0
v41
v42
o16
o2
v40
o44
o0
v40
o2
n-1
v41
C41
o54
3
o2
n3
o5
v42
n3
o2
o41
o0
v42
o2
n-1
v43
o41
o0
v42
v43
o16
o2
v41
o44
o0
v41
o2
n-1
v42
C42
o54
3
o2
n3
o5
v43
n3
o2
o41
o0
v43
o2
n-1
v44
o41
o0
v43
v44
o16
o2
v42
o44
o0
v42
o2
n-1
v43
C43
o54
3
o2
n3
o5
v44
n3
o2
o41
o0
v44
o2
n-1
v45
o41
o0
v44
v45
o16
o2
v43
o44
o0
v43
o2
n-1
v44
C44
o54
3
o2
n3
o5
v45
n3
o2
o41
o0
v45
o2
n-1
v46
o41
o0
v45
v46
o16
o2
v44
o44
o0
v44
o2
n-1
v45
C45
o54
3
o2
n3
o5
v46
n3
o2
o41
o0
v46
o2
n-1
v47
o41
o0
v46
v47
o16
o2
v45
o44
o0
v45
o2
n-1
v46
C46
o54
3
o2
n3
o5
v47
n3
o2
o41
o0
v47
o2
n-1
v48
o41
o0
v47
v48
o16
o2
v46
o44
o0
v46
o2
n-1
v47
C47
o54
3
o2
n3
o5
v48
n3
o2
o41
o0
v48
o2
n-1
v49
o41
o0
v48
v49
o16
o2
v47
o44
o0
v47
o2
n-1
v48
C48
o54
3
o2
n3
o5
v49
n3
o2
o41
o0
v49
o2
n-1
v50
o41
o0
v49
v50
o16
o2
v48
o44
o0
v48
o2
n-1
v49
C49
o54
3
o2
n3
o5
v50
n3
o2
o41
o0
v50
o2
n-1
v51
o41
o0
v50
v51
o16
o2
v49
o44
o0
v49
o2
n-1
v50
C50
o54
3
o2
n3
o5
v51
n3
o2
o41
o0
v51
o2
n-1
v52
o41
o0
v51
v52
o16
o2
v50
o44
o0
v50
o2
n-1
v51
C51
o54
3
o2
n3
o5
v52
n3
o2
o41
o0
v52
o2
n-1
v53
o41
o0
v52
v53
o16
o2
v51
o44
o0
v51
o2
n-1
v52
C52
o54
3
o2
n3
o5
v53
n3
o2
o41
o0
v53
o2
n-1
v54
o41
o0
v53
v54
o16
o2
v52
o44
o0
v52
o2
n-1
v53
C53
o54
3
o2
n3
o5
v54
n3
o2
o41
o0
v54
o2
n-1
v55
o41
o0
v54
v55
o16
o2
v53
o44
o0
v53
o2
n-1
v54
C54
o54
3
o2
n3
o5
v55
n3
o2
o41
o0
v55
o2
n-1
v56
o41
o0
v55
v56
o16
o2
v54
o44
o0
v54
o2
n-1
v55
C55
o54
3
o2
n3
o5
v56
n3
o2
o41
o0
v56
o2
n-1
v57
o41
o0
v56
v57
o16
o2
v55
o44
o0
v55
o2
n-1
v56
C56
o54
3
o2
n3
o5
v57
n3
o2
o41
o0
v57
o2
n-1
v58
o41
o0
v57
v58
o16
o2
v56
o44
o0
v56
o2
n-1
v57
C57
o54
3
o2
n3
o5
v58
n3
o2
o41
o0
v58
o2
n-1
v59
o41
o0
v58
v59
o16
o2
v57
o44
o0
v57
o2
n-1
v58
C58
o54
3
o2
n3
o5
v59
n3
o2
o41
o0
v59
o2
n-1
v60
o41
o0
v59
v60
o16
o2
v58
o44
o0
v58
o2
n-1
v59
C59
o54
3
o2
n3
o5
v60
n3
o2
o41
o0
v60
o2
n-1
v61
o41
o0
v60
v61
o16
o2
v59
o44
o0
v59
o2
n-1
v60
C60
o54
3
o2
n3
o5
v61
n3
o2
o41
o0
v61
o2
n-1
v62
o41
o0
v61
v62
o16
o2
v60
o44
o0
v60
o2
n-1
v61
C61
o54
3
o2
n3
o5
v62
n3
o2
o41
o0
v62
o2
n-1
v63
o41
o0
v62
v63
o16
o2
v61
o44
o0
v61
o2
n-1
v62
C62
o54
3
o2
n3
o5
v63
n3
o2
o41
o0
v63
o2
n-1
v64
o41
o0
v63
v64
o16
o2
v62
o44
o0
v62
o2
n-1
v63
C63
o54
3
o2
n3
o5
v64
n3
o2
o41
o0
v64
o2
n-1
v65
o41
o0
v64
v65
o16
o2
v63
o44
o0
v63
o2
n-1
v64
C64
o54
3
o2
n3
o5
v65
n3
o2
o41
o0
v65
o2
n-1
v66
o41
o0
v65
v66
o16
o2
v64
o44
o0
v64
o2
n-1
v65
C65
o54
3
o2
n3
o5
v66
n3
o2
o41
o0
v66
o2
n-1
v67
o41
o0
v66
v67
o16
o2
v65
o44
o0
v65
o2
n-1
v66
C66
o54
3
o2
n3
o5
v67
n3
o2
o41
o0
v67
o2
n-1
v68
o41
o0
v67
v68
o16
o2
v66
o44
o0
v66
o2
n-1
v67
C67
o54
3
o2
n3
o5
v68
n3
o2
o41
o0
v68
o2
n-1
v69
o41
o0
v68
v69
o16
o2
v67
o44
o0
v67
o2
n-1
v68
C68
o54
3
o2
n3
o5
v69
n3
o2
o41
o0
v69
o2
n-1
v70
o41
o0
v69
v70
o16
o2
v68
o44
o0
v68
o2
n-1
v69
C69
o54
3
o2
n3
o5
v70
n3
o2
o41
o0
v70
o2
n-1
v71
o41
o0
v70
v71
o16
o2
v69
o44
o0
v69
o2
n-1
v70
C70
o54
3
o2
n3
o5
v71
n3
o2
o41
o0
v71
o2
n-1
v72
o41
o0
v71
v72
o16
o2
v70
o44
o0
v70
o2
n-1
v71
C71
o54
3
o2
n3
o5
v72
n3
o2
o41
o0
v72
o2
n-1
v73
o41
o0
v72
v73
o16
o2
v71
o44
o0
v71
o2
n-1
v72
C72
o54
3
o2
n3
o5
v73
n3
o2
o41
o0
v73
o2
n-1
v74
o41
o0
v73
v74
o16
o2
v72
o44
o0
v72
o2
n-1
v73
C73
o54
3
o2
n3
o5
v74
n3
o2
o41
o0
v74
o2
n-1
v75
o41
o0
v74
v75
o16
o2
v73
o44
o0
v73
o2
n-1
v74
C74
o54
3
o2
n3
o5
v75
n3
o2
o41
o0
v75
o2
n-1
v76
o41
o0
v75
v76
o16
o2
v74
o44
o0
v74
o2
n-1
v75
C75
o54
3
o2
n3
o5
v76
n3
o2
o41
o0
v76
o2
n-1
v77
o41
o0
v76
v77
o16
o2
v75
o44
o0
v75
o2
n-1
v76
C76
o54
3
o2
n3
o5
v77
n3
o2
o41
o0
v77
o2
n-1
v78
o41
o0
v77
v78
o16
o2
v76
o44
o0
v76
o2
n-1
v77
C77
o54
3
o2
n3
o5
v78
n3
o2
o41
o0
v78
o2
n-1
v79
o41
o0
v78
v79
o16
o2
v77
o44
o0
v77
o2
n-1
v78
C78
o54
3
o2
n3
o5
v79
n3
o2
o41
o0
v79
o2
n-1
v80
o41
o0
v79
v80
o16
o2
v78
o44
o0
v78
o2
n-1
v79
C79
o54
3
o2
n3
o5
v80
n3
o2
o41
o0
v80
o2
n-1
v81
o41
o0
v80
v81
o16
o2
v79
o44
o0
v79
o2
n-1
v80
C80
o54
3
o2
n3
o5
v81
n3
o2
o41
o0
v81
o2
n-1
v82
o41
o0
v81
v82
o16
o2
v80
o44
o0
v80
o2
n-1
v81
C81
o54
3
o2
n3
o5
v82
n3
o2
o41
o0
v82
o2
n-1
v83
o41
o0
v82
v83
o16
o2
v81
o44
o0
v81
o2
n-1
v82
C82
o54
3
o2
n3
o5
v83
n3
o2
o41
o0
v83
o2
n-1
v84
o41
o0
v83
v84
o16
o2
v82
o44
o0
v82
o2
n-1
v83
C83
o54
3
o2
n3
o5
v84
n3
o2
o41
o0
v84
o2
n-1
v85
o41
o0
v84
v85
o16
o2
v83
o44
o0
v83
o2
n-1
v84
C84
o54
3
o2
n3
o5
v85
n3
o2
o41
o0
v85
o2
n-1
v86
o41
o0
v85
v86
o16
o2
v84
o44
o0
v84
o2
n-1
v85
C85
o54
3
o2
n3
o5
v86
n3
o2
o41
o0
v86
o2
n-1
v87
o41
o0
v86
v87
o16
o2
v85
o44
o0
v85
o2
n-1
v86
C86
o54
3
o2
n3
o5
v87
n3
o2
o41
o0
v87
o2
n-1
v88
o41
o0
v87
v88
o16
o2
v86
o44
o0
v86
o2
n-1
v87
C87
o54
3
o2
n3
o5
v88
n3
o2
o41
o0
v88
o2
n-1
v89
o41
o0
v88
v89
o16
o2
v87
o44
o0
v87
o2
n-1
v88
C88
o54
3
o2
n3
o5
v89
n3
o2
o41
o0
v89
o2
n-1
v90
o41
o0
v89
v90
o16
o2
v88
o44
o0
v88
o2
n-1
v89
C89
o54
3
o2
n3
o5
v90
n3
o2
o41
o0
v90
o2
n-1
v91
o41
o0
v90
v91
o16
o2
v89
o44
o0
v89
o2
n-1
v90
C90
o54
3
o2
n3
o5
v91
n3
o2
o41
o0
v91
o2
n-1
v92
o41
o0
v91
v92
o16
o2
v90
o44
o0
v90
o2
n-1
v91
C91
o54
3
o2
n3
o5
v92
n3
o2
o41
o0
v92
o2
n-1
v93
o41
o0
v92
v93
o16
o2
v91
o44
o0
v91
o2
n-1
v92
C92
o54
3
o2
n3
o5
v93
n3
o2
o41
o0
v93
o2
n-1
v94
o41
o0
v93
v94
o16
o2
v92
o44
o0
v92
o2
n-1
v93
C93
o54
3
o2
n3
o5
v94
n3
o2
o41
o0
v94
o2
n-1
v95
o41
o0
v94
v95
o16
o2
v93
o44
o0
v93
o2
n-1
v94
C94
o54
3
o2
n3
o5
v95
n3
o2
o41
o0
v95
o2
n-1
v96
o41
o0
v95
v96
o16
o2
v94
o44
o0
v94
o2
n-1
v95
C95
o54
3
o2
n3
o5
v96
n3
o2
o41
o0
v96
o2
n-1
v97
o41
o0
v96
v97
o16
o2
v95
o44
o0
v95
o2
n-1
v96
C96
o54
3
o2
n3
o5
v97
n3
o2
o41
o0
v97
o2
n-1
v98
o41
o0
v97
v98
o16
o2
v96
o44
o0
v96
o2
n-1
v97
C97
o54
3
o2
n3
o5
v98
n3
o2
o41
o0
v98
o2
n-1
v99
o41
o0
v98
v99
o16
o2
v97
o44
o0
v97
o2
n-1
v98
O0 0
o54
198
o2
n100
o5
o0
o2
n-1
v1
o5
v0
n2
n2
o5
o0
v0
n-1
n2
o2
n100
o5
o0
o2
n-1
v2
o5
v1
n2
n2
o5
o0
v1
n-1
n2
o2
n100
o5
o0
o2
n-1
v3
o5
v2
n2
n2
o5
o0
v2
n-1
n2
o2
n100
o5
o0
o2
n-1
v4
o5
v3
n2
n2
o5
o0
v3
n-1
n2
o2
n100
o5
o0
o2
n-1
v5
o5
v4
n2
n2
o5
o0
v4
n-1
n2
o2
n100
o5
o0
o2
n-1
v6
o5
v5
n2
n2
o5
o0
v5
n-1
n2
o2
n100
o5
o0
o2
n-1
v7
o5
v6
n2
n2
o5
o0
v6
n-1
n2
o2
n100
o5
o0
o2
n-1
v8
o5
v7
n2
n2
o5
o0
v7
n-1
n2
o2
n100
o5
o0
o2
n-1
v9
o5
v8
n2
n2
o5
o0
v8
n-1
n2
o2
n100
o5
o0
o2
n-1
v10
o5
v9
n2
n2
o5
o0
v9
n-1
n2
o2
n100
o5
o0
o2
n-1
v11
o5
v10
n2
n2
o5
o0
v10
n-1
n2
o2
n100
o5
o0
o2
n-1
v12
o5
v11
n2
n2
o5
o0
v11
n-1
n2
o2
n100
o5
o0
o2
n-1
v13
o5
v12
n2
n2
o5
o0
v12
n-1
n2
o2
n100
o5
o0
o2
n-1
v14
o5
v13
n2
n2
o5
o0
v13
n-1
n2
o2
n100
o5
o0
o2
n-1
v15
o5
v14
n2
n2
o5
o0
v14
n-1
n2
o2
n100
o5
o0
o2
n-1
v16
o5
v15
n2
n2
o5
o0
v15
n-1
n2
o2
n100
o5
o0
o2
n-1
v17
o5
v16
n2
n2
o5
o0
v16
n-1
n2
o2
n100
o5
o0
o2
n-1
v18
o5
v17
n2
n2
o5
o0
v17
n-1
n2
o2
n100
o5
o0
o2
n-1
v19
o5
v18
n2
n2
o5
o0
v18
n-1
n2
o2
n100
o5
o0
o2
n-1
v20
o5
v19
n2
n2
o5
o0
v19
n-1
n2
o2
n100
o5
o0
o2
n-1
v21
o5
v20
n2
n2
o5
o0
v20
n-1
n2
o2
n100
o5
o0
o2
n-1
v22
o5
v21
n2
n2
o5
o0
v21
n-1
n2
o2
n100
o5
o0
o2
n-1
v23
o5
v22
n2
n2
o5
o0
v22
n-1
n2
o2
n100
o5
o0
o2
n-1
v24
o5
v23
n2
n2
o5
o0
v23
n-1
n2
o2
n100
o5
o0
o2
n-1
v25
o5
v24
n2
n2
o5
o0
v24
n-1
n2
o2
n100
o5
o0
o2
n-1
v26
o5
v25
n2
n2
o5
o0
v25
n-1
n2
o2
n100
o5
o0
o2
n-1
v27
o5
v26
n2
n2
o5
o0
v26
n-1
n2
o2
n100
o5
o0
o2
n-1
v28
o5
v27
n2
n2
o5
o0
v27
n-1
n2
o2
n100
o5
o0
o2
n-1
v29
o5
v28
n2
n2
o5
o0
v28
n-1
n2
o2
n100
o5
o0
o2
n-1
v30
o5
v29
n2
n2
o5
o0
v29
n-1
n2
o2
n100
o5
o0
o2
n-1
v31
o5
v30
n2
n2
o5
o0
v30
n-1
n2
o2
n100
o5
o0
o2
n-1
v32
o5
v31
n2
n2
o5
o0
v31
n-1
n2
o2
n100
o5
o0
o2
n-1
v33
o5
v32
n2
n2
o5
o0
v32
n-1
n2
o2
n100
o5
o0
o2
n-1
v34
o5
v33
n2
n2
o5
o0
v33
n-1
n2
o2
n100
o5
o0
o2
n-1
v35
o5
v34
n2
n2
o5
o0
v34
n-1
n2
o2
n100
o5
o0
o2
n-1
v36
o5
v35
n2
n2
o5
o0
v35
n-1
n2
o2
n100
o5
o0
o2
n-1
v37
o5
v36
n2
n2
o5
o0
v36
n-1
n2
o2
n100
o5
o0
o2
n-1
v38
o5
v37
n2
n2
o5
o0
v37
n-1
n2
o2
n100
o5
o0
o2
n-1
v39
o5
v38
n2
n2
o5
o0
v38
n-1
n2
o2
n100
o5
o0
o2
n-1
v40
o5
v39
n2
n2
o5
o0
v39
n-1
n2
o2
n100
o5
o0
o2
n-1
v41
o5
v40
n2
n2
o5
o0
v40
n-1
n2
o2
n100
o5
o0
o2
n-1
v42
o5
v41
n2
n2
o5
o0
v41
n-1
n2
o2
n100
o5
o0
o2
n-1
v43
o5
v42
n2
n2
o5
o0
v42
n-1
n2
o2
n100
o5
o0
o2
n-1
v44
o5
v43
n2
n2
o5
o0
v43
n-1
n2
o2
n100
o5
o0
o2
n-1
v45
o5
v44
n2
n2
o5
o0
v44
n-1
n2
o2
n100
o5
o0
o2
n-1
v46
o5
v45
n2
n2
o5
o0
v45
n-1
n2
o2
n100
o5
o0
o2
n-1
v47
o5
v46
n2
n2
o5
o0
v46
n-1
n2
o2
n100
o5
o0
o2
n-1
v48
o5
v47
n2
n2
o5
o0
v47
n-1
n2
o2
n100
o5
o0
o2
n-1
v49
o5
v48
n2
n2
o5
o0
v48
n-1
n2
o2
n100
o5
o0
o2
n-1
v50
o5
v49
n2
n2
o5
o0
v49
n-1
n2
o2
n100
o5
o0
o2
n-1
v51
o5
v50
n2
n2
o5
o0
v50
n-1
n2
o2
n100
o5
o0
o2
n-1
v52
o5
v51
n2
n2
o5
o0
v51
n-1
n2
o2
n100
o5
o0
o2
n-1
v53
o5
v52
n2
n2
o5
o0
v52
n-1
n2
o2
n100
o5
o0
o2
n-1
v54
o5
v53
n2
n2
o5
o0
v53
n-1
n2
o2
n100
o5
o0
o2
n-1
v55
o5
v54
n2
n2
o5
o0
v54
n-1
n2
o2
n100
o5
o0
o2
n-1
v56
o5
v55
n2
n2
o5
o0
v55
n-1
n2
o2
n100
o5
o0
o2
n-1
v57
o5
v56
n2
n2
o5
o0
v56
n-1
n2
o2
n100
o5
o0
o2
n-1
v58
o5
v57
n2
n2
o5
o0
v57
n-1
n2
o2
n100
o5
o0
o2
n-1
v59
o5
v58
n2
n2
o5
o0
v58
n-1
n2
o2
n100
o5
o0
o2
n-1
v60
o5
v59
n2
n2
o5
o0
v59
n-1
n2
o2
n100
o5
o0
o2
n-1
v61
o5
v60
n2
n2
o5
o0
v60
n-1
n2
o2
n100
o5
o0
o2
n-1
v62
o5
v61
n2
n2
o5
o0
v61
n-1
n2
o2
n100
o5
o0
o2
n-1
v63
o5
v62
n2
n2
o5
o0
v62
n-1
n2
o2
n100
o5
o0
o2
n-1
v64
o5
v63
n2
n2
o5
o0
v63
n-1
n2
o2
n100
o5
o0
o2
n-1
v65
o5
v64
n2
n2
o5
o0
v64
n-1
n2
o2
n100
o5
o0
o2
n-1
v66
o5
v65
n2
n2
o5
o0
v65
n-1
n2
o2
n100
o5
o0
o2
n-1
v67
o5
v66
n2
n2
o5
o0
v66
n-1
n2
o2
n100
o5
o0
o2
n-1
v68
o5
v67
n2
n2
o5
o0
v67
n-1
n2
o2
n100
o5
o0
o2
n-1
v69
o5
v68
n2
n2
o5
o0
v68
n-1
n2
o2
n100
o5
o0
o2
n-1
v70
o5
v69
n2
n2
o5
o0
v69
n-1
n2
o2
n100
o5
o0
o2
n-1
v71
o5
v70
n2
n2
o5
o0
v70
n-1
n2
o2
n100
o5
o0
o2
n-1
v72
o5
v71
n2
n2
o5
o0
v71
n-1
n2
o2
n100
o5
o0
o2
n-1
v73
o5
v72
n2
n2
o5
o0
v72
n-1
n2
o2
n100
o5
o0
o2
n-1
v74
o5
v73
n2
n2
o5
o0
v73
n-1
n2
o2
n100
o5
o0
o2
n-1
v75
o5
v74
n2
n2
o5
o0
v74
n-1
n2
o2
n100
o5
o0
o2
n-1
v76
o5
v75
n2
n2
o5
o0
v75
n-1
n2
o2
n100
o5
o0
o2
n-1
v77
o5
v76
n2
n2
o5
o0
v76
n-1
n2
o2
n100
o5
o0
o2
n-1
v78
o5
v77
n2
n2
o5
o0
v77
n-1
n2
o2
n100
o5
o0
o2
n-1
v79
o5
v78
n2
n2
o5
o0
v78
n-1
n2
o2
n100
o5
o0
o2
n-1
v80
o5
v79
n2
n2
o5
o0
v79
n-1
n2
o2
n100
o5
o0
o2
n-1
v81
o5
v80
n2
n2
o5
o0
v80
n-1
n2
o2
n100
o5
o0
o2
n-1
v82
o5
v81
n2
n2
o5
o0
v81
n-1
n2
o2
n100
o5
o0
o2
n-1
v83
o5
v82
n2
n2
o5
o0
v82
n-1
n2
o2
n100
o5
o0
o2
n-1
v84
o5
v83
n2
n2
o5
o0
v83
n-1
n2
o2
n100
o5
o0
o2
n-1
v85
o5
v84
n2
n2
o5
o0
v84
n-1
n2
o2
n100
o5
o0
o2
n-1
v86
o5
v85
n2
n2
o5
o0
v85
n-1
n2
o2
n100
o5
o0
o2
n-1
v87
o5
v86
n2
n2
o5
o0
v86
n-1
n2
o2
n100
o5
o0
o2
n-1
v88
o5
v87
n2
n2
o5
o0
v87
n-1
n2
o2
n100
o5
o0
o2
n-1
v89
o5
v88
n2
n2
o5
o0
v88
n-1
n2
o2
n100
o5
o0
o2
n-1
v90
o5
v89
n2
n2
o5
o0
v89
n-1
n2
o2
n100
o5
o0
o2
n-1
v91
o5
v90
n2
n2
o5
o0
v90
n-1
n2
o2
n100
o5
o0
o2
n-1
v92
o5
v91
n2
n2
o5
o0
v91
n-1
n2
o2
n100
o5
o0
o2
n-1
v93
o5
v92
n2
n2
o5
o0
v92
n-1
n2
o2
n100
o5
o0
o2
n-1
v94
o5
v93
n2
n2
o5
o0
v93
n-1
n2
o2
n100
o5
o0
o2
n-1
v95
o5
v94
n2
n2
o5
o0
v94
n-1
n2
o2
n100
o5
o0
o2
n-1
v96
o5
v95
n2
n2
o5
o0
v95
n-1
n2
o2
n100
o5
o0
o2
n-1
v97
o5
v96
n2
n2
o5
o0
v96
n-1
n2
o2
n100
o5
o0
o2
n-1
v98
o5
v97
n2
n2
o5
o0
v97
n-1
n2
o2
n100
o5
o0
o2
n-1
v99
o5
v98
n2
n2
o5
o0
v98
n-1
n2
x100
0 -1.2
1 1.0
2 -1.2
3 1.0
4 -1.2
5 1.0
6 -1.2
7 1.0
8 -1.2
9 1.0
10 -1.2
11 1.0
12 -1.2
13 1.0
14 -1.2
15 1.0
16 -1.2
17 1.0
18 -1.2
19 1.0
20 -1.2
21 1.0
22 -1.2
23 1.0
24 -1.2
25 1.0
26 -1.2
27 1.0
28 -1.2
29 1.0
30 -1.2
31 1.0
32 -1.2
33 1.0
34 -1.2
35 1.0
36 -1.2
37 1.0
38 -1.2
39 1.0
40 -1.2
41 1.0
42 -1.2
43 1.0
44 -1.2
45 1.0
46 -1.2
47 1.0
48 -1.2
49 1.0
50 -1.2
51 1.0
52 -1.2
53 1.0
54 -1.2
55 1.0
56 -1.2
57 1.0
58 -1.2
59 1.0
60 -1.2
61 1.0
62 -1.2
63 1.0
64 -1.2
65 1.0
66 -1.2
67 1.0
68 -1.2
69 1.0
70 -1.2
71 1.0
72 -1.2
73 1.0
74 -1.2
75 1.0
76 -1.2
77 1.0
78 -1.2
79 1.0
80 -1.2
81 1.0
82 -1.2
83 1.0
84 -1.2
85 1.0
86 -1.2
87 1.0
88 -1.2
89 1.0
90 -1.2
91 1.0
92 -1.2
93 1.0
94 -1.2
95 1.0
96 -1.2
97 1.0
98 -1.2
99 1.0
r
4 8
4 8
4 8
4 8
4 8
4 8
4 8
4 8
4 8
4 8
4 8
4 8
4 8
4 8
4 8
4 8
4 8
4 8
4 8
4 8
4 8
4 8
4 8
4 8
4 8
4 8
4 8
4 8
4 8
4 8
4 8
4 8
4 8
4 8
4 8
4 8
4 8
4 8
4 8
4 8
4 8
4 8
4 8
4 8
4 8
4 8
4 8
4 8
4 8
4 8
4 8
4 8
4 8
4 8
4 8
4 8
4 8
4 8
4 8
4 8
4 8
4 8
4 8
4 8
4 8
4 8
4 8
4 8
4 8
4 8
4 8
4 8
4 8
4 8
4 8
4 8
4 8
4 8
4 8
4 8
4 8
4 8
4 8
4 8
4 8
4 8
4 8
4 8
4 8
4 8
4 8
4 8
4 8
4 8
4 8
4 8
4 8
4 8
b
3
3
3
3
3
3
3
3
3
3
3
3
3
3
3
3
3
3
3
3
3
3
3
3
3
3
3
3
3
3
3
3
3
3
3
3
3
3
3
3
3
3
3
3
3
3
3
3
3
3
3
3
3
3
3
3
3
3
3
3
3
3
3
3
3
3
3
3
3
3
3
3
3
3
3
3
3
3
3
3
3
3
3
3
3
3
3
3
3
3
3
3
3
3
3
3
3
3
3
3
k99
1
3
6
9
12
15
18
21
24
27
30
33
36
39
42
45
48
51
54
57
60
63
66
69
72
75
78
81
84
87
90
93
96
99
102
105
108
111
114
117
120
123
126
129
132
135
138
141
144
147
150
153
156
159
162
165
168
171
174
177
180
183
186
189
192
195
198
201
204
207
210
213
216
219
222
225
228
231
234
237
240
243
246
249
252
255
258
261
264
267
270
273
276
279
282
285
288
291
293
J0 3
0 0
1 4
2 2
J1 3
1 0
2 4
3 2
J2 3
2 0
3 4
4 2
J3 3
3 0
4 4
5 2
J4 3
4 0
5 4
6 2
J5 3
5 0
6 4
7 2
J6 3
6 0
7 4
8 2
J7 3
7 0
8 4
9 2
J8 3
8 0
9 4
10 2
J9 3
9 0
10 4
11 2
J10 3
10 0
11 4
12 2
J11 3
11 0
12 4
13 2
J12 3
12 0
13 4
14 2
J13 3
13 0
14 4
15 2
J14 3
14 0
15 4
16 2
J15 3
15 0
16 4
17 2
J16 3
16 0
17 4
18 2
J17 3
17 0
18 4
19 2
J18 3
18 0
19 4
20 2
J19 3
19 0
20 4
21 2
J20 3
20 0
21 4
22 2
J21 3
21 0
22 4
23 2
J22 3
22 0
23 4
24 2
J23 3
23 0
24 4
25 2
J24 3
24 0
25 4
26 2
J25 3
25 0
26 4
27 2
J26 3
26 0
27 4
28 2
J27 3
27 0
28 4
29 2
J28 3
28 0
29 4
30 2
J29 3
29 0
30 4
31 2
J30 3
30 0
31 4
32 2
J31 3
31 0
32 4
33 2
J32 3
32 0
33 4
34 2
J33 3
33 0
34 4
35 2
J34 3
34 0
35 4
36 2
J35 3
35 0
36 4
37 2
J36 3
36 0
37 4
38 2
J37 3
37 0
38 4
39 2
J38 3
38 0
39 4
40 2
J39 3
39 0
40 4
41 2
J40 3
40 0
41 4
42 2
J41 3
41 0
42 4
43 2
J42 3
42 0
43 4
44 2
J43 3
43 0
44 4
45 2
J44 3
44 0
45 4
46 2
J45 3
45 0
46 4
47 2
J46 3
46 0
47 4
48 2
J47 3
47 0
48 4
49 2
J48 3
48 0
49 4
50 2
J49 3
49 0
50 4
51 2
J50 3
50 0
51 4
52 2
J51 3
51 0
52 4
53 2
J52 3
52 0
53 4
54 2
J53 3
53 0
54 4
55 2
J54 3
54 0
55 4
56 2
J55 3
55 0
56 4
57 2
J56 3
56 0
57 4
58 2
J57 3
57 0
58 4
59 2
J58 3
58 0
59 4
60 2
J59 3
59 0
60 4
61 2
J60 3
60 0
61 4
62 2
J61 3
61 0
62 4
63 2
J62 3
62 0
63 4
64 2
J63 3
63 0
64 4
65 2
J64 3
64 0
65 4
66 2
J65 3
65 0
66 4
67 2
J66 3
66 0
67 4
68 2
J67 3
67 0
68 4
69 2
J68 3
68 0
69 4
70 2
J69 3
69 0
70 4
71 2
J70 3
70 0
71 4
72 2
J71 3
71 0
72 4
73 2
J72 3
72 0
73 4
74 2
J73 3
73 0
74 4
75 2
J74 3
74 0
75 4
76 2
J75 3
75 0
76 4
77 2
J76 3
76 0
77 4
78 2
J77 3
77 0
78 4
79 2
J78 3
78 0
79 4
80 2
J79 3
79 0
80 4
81 2
J80 3
80 0
81 4
82 2
J81 3
81 0
82 4
83 2
J82 3
82 0
83 4
84 2
J83 3
83 0
84 4
85 2
J84 3
84 0
85 4
86 2
J85 3
85 0
86 4
87 2
J86 3
86 0
87 4
88 2
J87 3
87 0
88 4
89 2
J88 3
88 0
89 4
90 2
J89 3
89 0
90 4
91 2
J90 3
90 0
91 4
92 2
J91 3
91 0
92 4
93 2
J92 3
92 0
93 4
94 2
J93 3
93 0
94 4
95 2
J94 3
94 0
95 4
96 2
J95 3
95 0
96 4
97 2
J96 3
96 0
97 4
98 2
J97 3
97 0
98 4
99 2
G0 100
0 0
1 0
2 0
3 0
4 0
5 0
6 0
7 0
8 0
9 0
10 0
11 0
12 0
13 0
14 0
15 0
16 0
17 0
18 0
19 0
20 0
21 0
22 0
23 0
24 0
25 0
26 0
27 0
28 0
29 0
30 0
31 0
32 0
33 0
34 0
35 0
36 0
37 0
38 0
39 0
40 0
41 0
42 0
43 0
44 0
45 0
46 0
47 0
48 0
49 0
50 0
51 0
52 0
53 0
54 0
55 0
56 0
57 0
58 0
59 0
60 0
61 0
62 0
63 0
64 0
65 0
66 0
67 0
68 0
69 0
70 0
71 0
72 0
73 0
74 0
75 0
76 0
77 0
78 0
79 0
80 0
81 0
82 0
83 0
84 0
85 0
86 0
87 0
88 0
89 0
90 0
91 0
92 0
93 0
94 0
95 0
96 0
97 0
98 0
99 0
